NAME: Sampled Nodes from P-n101-k4.vrp
COMMENT : no more to talk
TYPE: CVRP
DIMENSION: 80
EDGE_WEIGHT_TYPE: EUC_2D
CAPACITY: 400
NODE_COORD_SECTION
1 35.00 35.00
2 55.00 54.00
3 55.00 5.00
4 16.00 22.00
5 64.00 42.00
6 26.00 35.00
7 32.00 12.00
8 24.00 12.00
9 15.00 60.00
10 65.00 55.00
11 28.00 18.00
12 24.00 58.00
13 30.00 60.00
14 44.00 17.00
15 47.00 16.00
16 22.00 27.00
17 17.00 34.00
18 41.00 49.00
19 27.00 69.00
20 60.00 12.00
21 30.00 5.00
22 13.00 52.00
23 49.00 11.00
24 55.00 45.00
25 21.00 24.00
26 57.00 29.00
27 20.00 40.00
28 47.00 47.00
29 49.00 73.00
30 46.00 13.00
31 27.00 43.00
32 15.00 10.00
33 15.00 77.00
34 56.00 37.00
35 61.00 52.00
36 5.00 5.00
37 30.00 25.00
38 20.00 26.00
39 45.00 10.00
40 31.00 67.00
41 53.00 12.00
42 35.00 17.00
43 67.00 5.00
44 19.00 21.00
45 20.00 50.00
46 45.00 65.00
47 35.00 40.00
48 50.00 35.00
49 37.00 47.00
50 20.00 20.00
51 53.00 43.00
52 25.00 30.00
53 23.00 3.00
54 11.00 14.00
55 41.00 37.00
56 2.00 48.00
57 35.00 69.00
58 11.00 31.00
59 63.00 23.00
60 56.00 39.00
61 6.00 68.00
62 37.00 56.00
63 15.00 30.00
64 18.00 24.00
65 2.00 60.00
66 45.00 20.00
67 15.00 19.00
68 14.00 37.00
69 26.00 52.00
70 31.00 52.00
71 49.00 58.00
72 10.00 43.00
73 5.00 30.00
74 15.00 47.00
75 55.00 20.00
76 55.00 60.00
77 4.00 18.00
78 45.00 30.00
79 42.00 7.00
80 53.00 52.00
DEMAND_SECTION
1 0
2 26
3 29
4 41
5 9
6 15
7 7
8 5
9 17
10 14
11 26
12 19
13 16
14 9
15 25
16 11
17 3
18 10
19 10
20 31
21 8
22 36
23 18
24 13
25 28
26 18
27 12
28 13
29 25
30 8
31 9
32 20
33 9
34 6
35 3
36 16
37 23
38 9
39 18
40 3
41 6
42 7
43 25
44 10
45 5
46 9
47 16
48 19
49 6
50 8
51 14
52 3
53 7
54 18
55 16
56 1
57 23
58 7
59 2
60 36
61 30
62 5
63 26
64 22
65 5
66 11
67 1
68 11
69 9
70 27
71 10
72 9
73 2
74 16
75 19
76 16
77 35
78 17
79 5
80 11
DEPOT_SECTION
1
-1
EOF
